Minimize
2.000000 xl_5_0 + 2.000000 xl_5_1 + 2.000000 xl_5_2 + 2.000000 xl_5_3 + 2.000000 xl_5_4 + 2.000000 xl_5_5 + 2.000000 xl_5_6 + 2.000000 xl_5_7 + 2.000000 xl_5_8 + 2.000000 xl_5_9 + 2.000000 xl_5_10 + 2.000000 xl_5_11 + 2.000000 xl_5_12 + 2.000000 xl_5_13 + 2.000000 xl_5_14 + 2.000000 xl_5_15 + 1.000000 s_0_0 + 1.000000 s_0_1 + 1.000000 s_0_2 + 1.000000 s_0_3 + 1.000000 s_0_4 + 1.000000 s_0_5 + 1.000000 s_0_6 + 1.000000 s_0_7 + 1.000000 s_0_8 + 1.000000 s_0_9 + 1.000000 s_0_10 + 1.000000 s_0_11 + 1.000000 s_0_12 + 1.000000 s_0_13 + 1.000000 s_0_14 + 1.000000 s_0_15 + 1.000000 s_1_0 + 1.000000 s_1_1 + 1.000000 s_1_2 + 1.000000 s_1_3 + 1.000000 s_1_4 + 1.000000 s_1_5 + 1.000000 s_1_6 + 1.000000 s_1_7 + 1.000000 s_1_8 + 1.000000 s_1_9 + 1.000000 s_1_10 + 1.000000 s_1_11 + 1.000000 s_1_12 + 1.000000 s_1_13 + 1.000000 s_1_14 + 1.000000 s_1_15 + 1.000000 s_2_0 + 1.000000 s_2_1 + 1.000000 s_2_2 + 1.000000 s_2_3 + 1.000000 s_2_4 + 1.000000 s_2_5 + 1.000000 s_2_6 + 1.000000 s_2_7 + 1.000000 s_2_8 + 1.000000 s_2_9 + 1.000000 s_2_10 + 1.000000 s_2_11 + 1.000000 s_2_12 + 1.000000 s_2_13 + 1.000000 s_2_14 + 1.000000 s_2_15 + 1.000000 s_3_0 + 1.000000 s_3_1 + 1.000000 s_3_2 + 1.000000 s_3_3 + 1.000000 s_3_4 + 1.000000 s_3_5 + 1.000000 s_3_6 + 1.000000 s_3_7 + 1.000000 s_3_8 + 1.000000 s_3_9 + 1.000000 s_3_10 + 1.000000 s_3_11 + 1.000000 s_3_12 + 1.000000 s_3_13 + 1.000000 s_3_14 + 1.000000 s_3_15 + 1.000000 s_4_0 + 1.000000 s_4_1 + 1.000000 s_4_2 + 1.000000 s_4_3 + 1.000000 s_4_4 + 1.000000 s_4_5 + 1.000000 s_4_6 + 1.000000 s_4_7 + 1.000000 s_4_8 + 1.000000 s_4_9 + 1.000000 s_4_10 + 1.000000 s_4_11 + 1.000000 s_4_12 + 1.000000 s_4_13 + 1.000000 s_4_14 + 1.000000 s_4_15
Subject To
\ Exclude the trivial solution:
xu_0_0 + xu_0_1 + xu_0_2 + xu_0_3 + xu_0_4 + xu_0_5 + xu_0_6 + xu_0_7 + xu_0_8 + xu_0_9 + xu_0_10 + xu_0_11 + xu_0_12 + xu_0_13 + xu_0_14 + xu_0_15 >= 1
xu_0_0 + xu_0_8 + dv_0 -  2 d_0 >= 0
d_0 - xu_0_0 >= 0
d_0 - xu_0_8 >= 0
d_0 - dv_0 >= 0
dv_0 + xu_0_12 + yu_0_0 -  2 d_1 >= 0
d_1 - dv_0 >= 0
d_1 - xu_0_12 >= 0
d_1 - yu_0_0 >= 0
xu_0_4 + xu_0_12 + yu_0_4 -  2 d_2 >= 0
d_2 - xu_0_4 >= 0
d_2 - xu_0_12 >= 0
d_2 - yu_0_4 >= 0
xu_0_1 + xu_0_9 + dv_1 -  2 d_3 >= 0
d_3 - xu_0_1 >= 0
d_3 - xu_0_9 >= 0
d_3 - dv_1 >= 0
dv_1 + xu_0_13 + yu_0_1 -  2 d_4 >= 0
d_4 - dv_1 >= 0
d_4 - xu_0_13 >= 0
d_4 - yu_0_1 >= 0
xu_0_5 + xu_0_13 + yu_0_5 -  2 d_5 >= 0
d_5 - xu_0_5 >= 0
d_5 - xu_0_13 >= 0
d_5 - yu_0_5 >= 0
xu_0_2 + xu_0_10 + dv_2 -  2 d_6 >= 0
d_6 - xu_0_2 >= 0
d_6 - xu_0_10 >= 0
d_6 - dv_2 >= 0
dv_2 + xu_0_14 + yu_0_2 -  2 d_7 >= 0
d_7 - dv_2 >= 0
d_7 - xu_0_14 >= 0
d_7 - yu_0_2 >= 0
xu_0_6 + xu_0_14 + yu_0_6 -  2 d_8 >= 0
d_8 - xu_0_6 >= 0
d_8 - xu_0_14 >= 0
d_8 - yu_0_6 >= 0
xu_0_3 + xu_0_11 + dv_3 -  2 d_9 >= 0
d_9 - xu_0_3 >= 0
d_9 - xu_0_11 >= 0
d_9 - dv_3 >= 0
dv_3 + xu_0_15 + yu_0_3 -  2 d_10 >= 0
d_10 - dv_3 >= 0
d_10 - xu_0_15 >= 0
d_10 - yu_0_3 >= 0
xu_0_7 + xu_0_15 + yu_0_7 -  2 d_11 >= 0
d_11 - xu_0_7 >= 0
d_11 - xu_0_15 >= 0
d_11 - yu_0_7 >= 0
xu_0_15 - xu_1_0 = 0
xu_0_12 - xu_1_1 = 0
xu_0_13 - xu_1_2 = 0
xu_0_14 - xu_1_3 = 0
xu_0_10 - xu_1_4 = 0
xu_0_9 - xu_1_5 = 0
xu_0_8 - xu_1_6 = 0
xu_0_11 - xu_1_7 = 0
yu_0_6 - xu_1_8 = 0
yu_0_5 - xu_1_9 = 0
yu_0_4 - xu_1_10 = 0
yu_0_7 - xu_1_11 = 0
yu_0_1 - xu_1_12 = 0
yu_0_2 - xu_1_13 = 0
yu_0_3 - xu_1_14 = 0
yu_0_0 - xu_1_15 = 0
xu_1_0 + xu_1_8 + dv_4 -  2 d_12 >= 0
d_12 - xu_1_0 >= 0
d_12 - xu_1_8 >= 0
d_12 - dv_4 >= 0
dv_4 + xu_1_12 + yu_1_0 -  2 d_13 >= 0
d_13 - dv_4 >= 0
d_13 - xu_1_12 >= 0
d_13 - yu_1_0 >= 0
xu_1_4 + xu_1_12 + yu_1_4 -  2 d_14 >= 0
d_14 - xu_1_4 >= 0
d_14 - xu_1_12 >= 0
d_14 - yu_1_4 >= 0
xu_1_1 + xu_1_9 + dv_5 -  2 d_15 >= 0
d_15 - xu_1_1 >= 0
d_15 - xu_1_9 >= 0
d_15 - dv_5 >= 0
dv_5 + xu_1_13 + yu_1_1 -  2 d_16 >= 0
d_16 - dv_5 >= 0
d_16 - xu_1_13 >= 0
d_16 - yu_1_1 >= 0
xu_1_5 + xu_1_13 + yu_1_5 -  2 d_17 >= 0
d_17 - xu_1_5 >= 0
d_17 - xu_1_13 >= 0
d_17 - yu_1_5 >= 0
xu_1_2 + xu_1_10 + dv_6 -  2 d_18 >= 0
d_18 - xu_1_2 >= 0
d_18 - xu_1_10 >= 0
d_18 - dv_6 >= 0
dv_6 + xu_1_14 + yu_1_2 -  2 d_19 >= 0
d_19 - dv_6 >= 0
d_19 - xu_1_14 >= 0
d_19 - yu_1_2 >= 0
xu_1_6 + xu_1_14 + yu_1_6 -  2 d_20 >= 0
d_20 - xu_1_6 >= 0
d_20 - xu_1_14 >= 0
d_20 - yu_1_6 >= 0
xu_1_3 + xu_1_11 + dv_7 -  2 d_21 >= 0
d_21 - xu_1_3 >= 0
d_21 - xu_1_11 >= 0
d_21 - dv_7 >= 0
dv_7 + xu_1_15 + yu_1_3 -  2 d_22 >= 0
d_22 - dv_7 >= 0
d_22 - xu_1_15 >= 0
d_22 - yu_1_3 >= 0
xu_1_7 + xu_1_15 + yu_1_7 -  2 d_23 >= 0
d_23 - xu_1_7 >= 0
d_23 - xu_1_15 >= 0
d_23 - yu_1_7 >= 0
xu_1_15 - xu_2_0 = 0
xu_1_12 - xu_2_1 = 0
xu_1_13 - xu_2_2 = 0
xu_1_14 - xu_2_3 = 0
xu_1_10 - xu_2_4 = 0
xu_1_9 - xu_2_5 = 0
xu_1_8 - xu_2_6 = 0
xu_1_11 - xu_2_7 = 0
yu_1_6 - xu_2_8 = 0
yu_1_5 - xu_2_9 = 0
yu_1_4 - xu_2_10 = 0
yu_1_7 - xu_2_11 = 0
yu_1_1 - xu_2_12 = 0
yu_1_2 - xu_2_13 = 0
yu_1_3 - xu_2_14 = 0
yu_1_0 - xu_2_15 = 0
xu_2_0 + xu_2_8 + dv_8 -  2 d_24 >= 0
d_24 - xu_2_0 >= 0
d_24 - xu_2_8 >= 0
d_24 - dv_8 >= 0
dv_8 + xu_2_12 + yu_2_0 -  2 d_25 >= 0
d_25 - dv_8 >= 0
d_25 - xu_2_12 >= 0
d_25 - yu_2_0 >= 0
xu_2_4 + xu_2_12 + yu_2_4 -  2 d_26 >= 0
d_26 - xu_2_4 >= 0
d_26 - xu_2_12 >= 0
d_26 - yu_2_4 >= 0
xu_2_1 + xu_2_9 + dv_9 -  2 d_27 >= 0
d_27 - xu_2_1 >= 0
d_27 - xu_2_9 >= 0
d_27 - dv_9 >= 0
dv_9 + xu_2_13 + yu_2_1 -  2 d_28 >= 0
d_28 - dv_9 >= 0
d_28 - xu_2_13 >= 0
d_28 - yu_2_1 >= 0
xu_2_5 + xu_2_13 + yu_2_5 -  2 d_29 >= 0
d_29 - xu_2_5 >= 0
d_29 - xu_2_13 >= 0
d_29 - yu_2_5 >= 0
xu_2_2 + xu_2_10 + dv_10 -  2 d_30 >= 0
d_30 - xu_2_2 >= 0
d_30 - xu_2_10 >= 0
d_30 - dv_10 >= 0
dv_10 + xu_2_14 + yu_2_2 -  2 d_31 >= 0
d_31 - dv_10 >= 0
d_31 - xu_2_14 >= 0
d_31 - yu_2_2 >= 0
xu_2_6 + xu_2_14 + yu_2_6 -  2 d_32 >= 0
d_32 - xu_2_6 >= 0
d_32 - xu_2_14 >= 0
d_32 - yu_2_6 >= 0
xu_2_3 + xu_2_11 + dv_11 -  2 d_33 >= 0
d_33 - xu_2_3 >= 0
d_33 - xu_2_11 >= 0
d_33 - dv_11 >= 0
dv_11 + xu_2_15 + yu_2_3 -  2 d_34 >= 0
d_34 - dv_11 >= 0
d_34 - xu_2_15 >= 0
d_34 - yu_2_3 >= 0
xu_2_7 + xu_2_15 + yu_2_7 -  2 d_35 >= 0
d_35 - xu_2_7 >= 0
d_35 - xu_2_15 >= 0
d_35 - yu_2_7 >= 0
xu_2_15 - xu_3_0 = 0
xu_2_12 - xu_3_1 = 0
xu_2_13 - xu_3_2 = 0
xu_2_14 - xu_3_3 = 0
xu_2_10 - xu_3_4 = 0
xu_2_9 - xu_3_5 = 0
xu_2_8 - xu_3_6 = 0
xu_2_11 - xu_3_7 = 0
yu_2_6 - xu_3_8 = 0
yu_2_5 - xu_3_9 = 0
yu_2_4 - xu_3_10 = 0
yu_2_7 - xu_3_11 = 0
yu_2_1 - xu_3_12 = 0
yu_2_2 - xu_3_13 = 0
yu_2_3 - xu_3_14 = 0
yu_2_0 - xu_3_15 = 0
xu_3_0 + xu_3_8 + dv_12 -  2 d_36 >= 0
d_36 - xu_3_0 >= 0
d_36 - xu_3_8 >= 0
d_36 - dv_12 >= 0
dv_12 + xu_3_12 + yu_3_0 -  2 d_37 >= 0
d_37 - dv_12 >= 0
d_37 - xu_3_12 >= 0
d_37 - yu_3_0 >= 0
xu_3_4 + xu_3_12 + yu_3_4 -  2 d_38 >= 0
d_38 - xu_3_4 >= 0
d_38 - xu_3_12 >= 0
d_38 - yu_3_4 >= 0
xu_3_1 + xu_3_9 + dv_13 -  2 d_39 >= 0
d_39 - xu_3_1 >= 0
d_39 - xu_3_9 >= 0
d_39 - dv_13 >= 0
dv_13 + xu_3_13 + yu_3_1 -  2 d_40 >= 0
d_40 - dv_13 >= 0
d_40 - xu_3_13 >= 0
d_40 - yu_3_1 >= 0
xu_3_5 + xu_3_13 + yu_3_5 -  2 d_41 >= 0
d_41 - xu_3_5 >= 0
d_41 - xu_3_13 >= 0
d_41 - yu_3_5 >= 0
xu_3_2 + xu_3_10 + dv_14 -  2 d_42 >= 0
d_42 - xu_3_2 >= 0
d_42 - xu_3_10 >= 0
d_42 - dv_14 >= 0
dv_14 + xu_3_14 + yu_3_2 -  2 d_43 >= 0
d_43 - dv_14 >= 0
d_43 - xu_3_14 >= 0
d_43 - yu_3_2 >= 0
xu_3_6 + xu_3_14 + yu_3_6 -  2 d_44 >= 0
d_44 - xu_3_6 >= 0
d_44 - xu_3_14 >= 0
d_44 - yu_3_6 >= 0
xu_3_3 + xu_3_11 + dv_15 -  2 d_45 >= 0
d_45 - xu_3_3 >= 0
d_45 - xu_3_11 >= 0
d_45 - dv_15 >= 0
dv_15 + xu_3_15 + yu_3_3 -  2 d_46 >= 0
d_46 - dv_15 >= 0
d_46 - xu_3_15 >= 0
d_46 - yu_3_3 >= 0
xu_3_7 + xu_3_15 + yu_3_7 -  2 d_47 >= 0
d_47 - xu_3_7 >= 0
d_47 - xu_3_15 >= 0
d_47 - yu_3_7 >= 0
xu_3_15 - xu_4_0 = 0
xu_3_12 - xu_4_1 = 0
xu_3_13 - xu_4_2 = 0
xu_3_14 - xu_4_3 = 0
xu_3_10 - xu_4_4 = 0
xu_3_9 - xu_4_5 = 0
xu_3_8 - xu_4_6 = 0
xu_3_11 - xu_4_7 = 0
yu_3_6 - xu_4_8 = 0
yu_3_5 - xu_4_9 = 0
yu_3_4 - xu_4_10 = 0
yu_3_7 - xu_4_11 = 0
yu_3_1 - xu_4_12 = 0
yu_3_2 - xu_4_13 = 0
yu_3_3 - xu_4_14 = 0
yu_3_0 - xu_4_15 = 0
xu_4_0 + xu_4_8 + dv_16 -  2 d_48 >= 0
d_48 - xu_4_0 >= 0
d_48 - xu_4_8 >= 0
d_48 - dv_16 >= 0
dv_16 + xu_4_12 + yu_4_0 -  2 d_49 >= 0
d_49 - dv_16 >= 0
d_49 - xu_4_12 >= 0
d_49 - yu_4_0 >= 0
xu_4_4 + xu_4_12 + yu_4_4 -  2 d_50 >= 0
d_50 - xu_4_4 >= 0
d_50 - xu_4_12 >= 0
d_50 - yu_4_4 >= 0
xu_4_1 + xu_4_9 + dv_17 -  2 d_51 >= 0
d_51 - xu_4_1 >= 0
d_51 - xu_4_9 >= 0
d_51 - dv_17 >= 0
dv_17 + xu_4_13 + yu_4_1 -  2 d_52 >= 0
d_52 - dv_17 >= 0
d_52 - xu_4_13 >= 0
d_52 - yu_4_1 >= 0
xu_4_5 + xu_4_13 + yu_4_5 -  2 d_53 >= 0
d_53 - xu_4_5 >= 0
d_53 - xu_4_13 >= 0
d_53 - yu_4_5 >= 0
xu_4_2 + xu_4_10 + dv_18 -  2 d_54 >= 0
d_54 - xu_4_2 >= 0
d_54 - xu_4_10 >= 0
d_54 - dv_18 >= 0
dv_18 + xu_4_14 + yu_4_2 -  2 d_55 >= 0
d_55 - dv_18 >= 0
d_55 - xu_4_14 >= 0
d_55 - yu_4_2 >= 0
xu_4_6 + xu_4_14 + yu_4_6 -  2 d_56 >= 0
d_56 - xu_4_6 >= 0
d_56 - xu_4_14 >= 0
d_56 - yu_4_6 >= 0
xu_4_3 + xu_4_11 + dv_19 -  2 d_57 >= 0
d_57 - xu_4_3 >= 0
d_57 - xu_4_11 >= 0
d_57 - dv_19 >= 0
dv_19 + xu_4_15 + yu_4_3 -  2 d_58 >= 0
d_58 - dv_19 >= 0
d_58 - xu_4_15 >= 0
d_58 - yu_4_3 >= 0
xu_4_7 + xu_4_15 + yu_4_7 -  2 d_59 >= 0
d_59 - xu_4_7 >= 0
d_59 - xu_4_15 >= 0
d_59 - yu_4_7 >= 0
xu_4_15 - xu_5_0 = 0
xu_4_12 - xu_5_1 = 0
xu_4_13 - xu_5_2 = 0
xu_4_14 - xu_5_3 = 0
xu_4_10 - xu_5_4 = 0
xu_4_9 - xu_5_5 = 0
xu_4_8 - xu_5_6 = 0
xu_4_11 - xu_5_7 = 0
yu_4_6 - xu_5_8 = 0
yu_4_5 - xu_5_9 = 0
yu_4_4 - xu_5_10 = 0
yu_4_7 - xu_5_11 = 0
yu_4_1 - xu_5_12 = 0
yu_4_2 - xu_5_13 = 0
yu_4_3 - xu_5_14 = 0
yu_4_0 - xu_5_15 = 0
\ Exclude the trivial solution:
xl_0_0 + xl_0_1 + xl_0_2 + xl_0_3 + xl_0_4 + xl_0_5 + xl_0_6 + xl_0_7 + xl_0_8 + xl_0_9 + xl_0_10 + xl_0_11 + xl_0_12 + xl_0_13 + xl_0_14 + xl_0_15 >= 1
xl_0_0 + xl_0_8 + dv_20 -  2 d_60 >= 0
d_60 - xl_0_0 >= 0
d_60 - xl_0_8 >= 0
d_60 - dv_20 >= 0
dv_20 + xl_0_12 + yl_0_0 -  2 d_61 >= 0
d_61 - dv_20 >= 0
d_61 - xl_0_12 >= 0
d_61 - yl_0_0 >= 0
xl_0_4 + xl_0_12 + yl_0_4 -  2 d_62 >= 0
d_62 - xl_0_4 >= 0
d_62 - xl_0_12 >= 0
d_62 - yl_0_4 >= 0
xl_0_1 + xl_0_9 + dv_21 -  2 d_63 >= 0
d_63 - xl_0_1 >= 0
d_63 - xl_0_9 >= 0
d_63 - dv_21 >= 0
dv_21 + xl_0_13 + yl_0_1 -  2 d_64 >= 0
d_64 - dv_21 >= 0
d_64 - xl_0_13 >= 0
d_64 - yl_0_1 >= 0
xl_0_5 + xl_0_13 + yl_0_5 -  2 d_65 >= 0
d_65 - xl_0_5 >= 0
d_65 - xl_0_13 >= 0
d_65 - yl_0_5 >= 0
xl_0_2 + xl_0_10 + dv_22 -  2 d_66 >= 0
d_66 - xl_0_2 >= 0
d_66 - xl_0_10 >= 0
d_66 - dv_22 >= 0
dv_22 + xl_0_14 + yl_0_2 -  2 d_67 >= 0
d_67 - dv_22 >= 0
d_67 - xl_0_14 >= 0
d_67 - yl_0_2 >= 0
xl_0_6 + xl_0_14 + yl_0_6 -  2 d_68 >= 0
d_68 - xl_0_6 >= 0
d_68 - xl_0_14 >= 0
d_68 - yl_0_6 >= 0
xl_0_3 + xl_0_11 + dv_23 -  2 d_69 >= 0
d_69 - xl_0_3 >= 0
d_69 - xl_0_11 >= 0
d_69 - dv_23 >= 0
dv_23 + xl_0_15 + yl_0_3 -  2 d_70 >= 0
d_70 - dv_23 >= 0
d_70 - xl_0_15 >= 0
d_70 - yl_0_3 >= 0
xl_0_7 + xl_0_15 + yl_0_7 -  2 d_71 >= 0
d_71 - xl_0_7 >= 0
d_71 - xl_0_15 >= 0
d_71 - yl_0_7 >= 0
xl_0_15 - xl_1_0 = 0
xl_0_12 - xl_1_1 = 0
xl_0_13 - xl_1_2 = 0
xl_0_14 - xl_1_3 = 0
xl_0_10 - xl_1_4 = 0
xl_0_9 - xl_1_5 = 0
xl_0_8 - xl_1_6 = 0
xl_0_11 - xl_1_7 = 0
yl_0_6 - xl_1_8 = 0
yl_0_5 - xl_1_9 = 0
yl_0_4 - xl_1_10 = 0
yl_0_7 - xl_1_11 = 0
yl_0_1 - xl_1_12 = 0
yl_0_2 - xl_1_13 = 0
yl_0_3 - xl_1_14 = 0
yl_0_0 - xl_1_15 = 0
xl_1_0 + xl_1_8 + dv_24 -  2 d_72 >= 0
d_72 - xl_1_0 >= 0
d_72 - xl_1_8 >= 0
d_72 - dv_24 >= 0
dv_24 + xl_1_12 + yl_1_0 -  2 d_73 >= 0
d_73 - dv_24 >= 0
d_73 - xl_1_12 >= 0
d_73 - yl_1_0 >= 0
xl_1_4 + xl_1_12 + yl_1_4 -  2 d_74 >= 0
d_74 - xl_1_4 >= 0
d_74 - xl_1_12 >= 0
d_74 - yl_1_4 >= 0
xl_1_1 + xl_1_9 + dv_25 -  2 d_75 >= 0
d_75 - xl_1_1 >= 0
d_75 - xl_1_9 >= 0
d_75 - dv_25 >= 0
dv_25 + xl_1_13 + yl_1_1 -  2 d_76 >= 0
d_76 - dv_25 >= 0
d_76 - xl_1_13 >= 0
d_76 - yl_1_1 >= 0
xl_1_5 + xl_1_13 + yl_1_5 -  2 d_77 >= 0
d_77 - xl_1_5 >= 0
d_77 - xl_1_13 >= 0
d_77 - yl_1_5 >= 0
xl_1_2 + xl_1_10 + dv_26 -  2 d_78 >= 0
d_78 - xl_1_2 >= 0
d_78 - xl_1_10 >= 0
d_78 - dv_26 >= 0
dv_26 + xl_1_14 + yl_1_2 -  2 d_79 >= 0
d_79 - dv_26 >= 0
d_79 - xl_1_14 >= 0
d_79 - yl_1_2 >= 0
xl_1_6 + xl_1_14 + yl_1_6 -  2 d_80 >= 0
d_80 - xl_1_6 >= 0
d_80 - xl_1_14 >= 0
d_80 - yl_1_6 >= 0
xl_1_3 + xl_1_11 + dv_27 -  2 d_81 >= 0
d_81 - xl_1_3 >= 0
d_81 - xl_1_11 >= 0
d_81 - dv_27 >= 0
dv_27 + xl_1_15 + yl_1_3 -  2 d_82 >= 0
d_82 - dv_27 >= 0
d_82 - xl_1_15 >= 0
d_82 - yl_1_3 >= 0
xl_1_7 + xl_1_15 + yl_1_7 -  2 d_83 >= 0
d_83 - xl_1_7 >= 0
d_83 - xl_1_15 >= 0
d_83 - yl_1_7 >= 0
xl_1_15 - xl_2_0 = 0
xl_1_12 - xl_2_1 = 0
xl_1_13 - xl_2_2 = 0
xl_1_14 - xl_2_3 = 0
xl_1_10 - xl_2_4 = 0
xl_1_9 - xl_2_5 = 0
xl_1_8 - xl_2_6 = 0
xl_1_11 - xl_2_7 = 0
yl_1_6 - xl_2_8 = 0
yl_1_5 - xl_2_9 = 0
yl_1_4 - xl_2_10 = 0
yl_1_7 - xl_2_11 = 0
yl_1_1 - xl_2_12 = 0
yl_1_2 - xl_2_13 = 0
yl_1_3 - xl_2_14 = 0
yl_1_0 - xl_2_15 = 0
xl_2_0 + xl_2_8 + dv_28 -  2 d_84 >= 0
d_84 - xl_2_0 >= 0
d_84 - xl_2_8 >= 0
d_84 - dv_28 >= 0
dv_28 + xl_2_12 + yl_2_0 -  2 d_85 >= 0
d_85 - dv_28 >= 0
d_85 - xl_2_12 >= 0
d_85 - yl_2_0 >= 0
xl_2_4 + xl_2_12 + yl_2_4 -  2 d_86 >= 0
d_86 - xl_2_4 >= 0
d_86 - xl_2_12 >= 0
d_86 - yl_2_4 >= 0
xl_2_1 + xl_2_9 + dv_29 -  2 d_87 >= 0
d_87 - xl_2_1 >= 0
d_87 - xl_2_9 >= 0
d_87 - dv_29 >= 0
dv_29 + xl_2_13 + yl_2_1 -  2 d_88 >= 0
d_88 - dv_29 >= 0
d_88 - xl_2_13 >= 0
d_88 - yl_2_1 >= 0
xl_2_5 + xl_2_13 + yl_2_5 -  2 d_89 >= 0
d_89 - xl_2_5 >= 0
d_89 - xl_2_13 >= 0
d_89 - yl_2_5 >= 0
xl_2_2 + xl_2_10 + dv_30 -  2 d_90 >= 0
d_90 - xl_2_2 >= 0
d_90 - xl_2_10 >= 0
d_90 - dv_30 >= 0
dv_30 + xl_2_14 + yl_2_2 -  2 d_91 >= 0
d_91 - dv_30 >= 0
d_91 - xl_2_14 >= 0
d_91 - yl_2_2 >= 0
xl_2_6 + xl_2_14 + yl_2_6 -  2 d_92 >= 0
d_92 - xl_2_6 >= 0
d_92 - xl_2_14 >= 0
d_92 - yl_2_6 >= 0
xl_2_3 + xl_2_11 + dv_31 -  2 d_93 >= 0
d_93 - xl_2_3 >= 0
d_93 - xl_2_11 >= 0
d_93 - dv_31 >= 0
dv_31 + xl_2_15 + yl_2_3 -  2 d_94 >= 0
d_94 - dv_31 >= 0
d_94 - xl_2_15 >= 0
d_94 - yl_2_3 >= 0
xl_2_7 + xl_2_15 + yl_2_7 -  2 d_95 >= 0
d_95 - xl_2_7 >= 0
d_95 - xl_2_15 >= 0
d_95 - yl_2_7 >= 0
xl_2_15 - xl_3_0 = 0
xl_2_12 - xl_3_1 = 0
xl_2_13 - xl_3_2 = 0
xl_2_14 - xl_3_3 = 0
xl_2_10 - xl_3_4 = 0
xl_2_9 - xl_3_5 = 0
xl_2_8 - xl_3_6 = 0
xl_2_11 - xl_3_7 = 0
yl_2_6 - xl_3_8 = 0
yl_2_5 - xl_3_9 = 0
yl_2_4 - xl_3_10 = 0
yl_2_7 - xl_3_11 = 0
yl_2_1 - xl_3_12 = 0
yl_2_2 - xl_3_13 = 0
yl_2_3 - xl_3_14 = 0
yl_2_0 - xl_3_15 = 0
xl_3_0 + xl_3_8 + dv_32 -  2 d_96 >= 0
d_96 - xl_3_0 >= 0
d_96 - xl_3_8 >= 0
d_96 - dv_32 >= 0
dv_32 + xl_3_12 + yl_3_0 -  2 d_97 >= 0
d_97 - dv_32 >= 0
d_97 - xl_3_12 >= 0
d_97 - yl_3_0 >= 0
xl_3_4 + xl_3_12 + yl_3_4 -  2 d_98 >= 0
d_98 - xl_3_4 >= 0
d_98 - xl_3_12 >= 0
d_98 - yl_3_4 >= 0
xl_3_1 + xl_3_9 + dv_33 -  2 d_99 >= 0
d_99 - xl_3_1 >= 0
d_99 - xl_3_9 >= 0
d_99 - dv_33 >= 0
dv_33 + xl_3_13 + yl_3_1 -  2 d_100 >= 0
d_100 - dv_33 >= 0
d_100 - xl_3_13 >= 0
d_100 - yl_3_1 >= 0
xl_3_5 + xl_3_13 + yl_3_5 -  2 d_101 >= 0
d_101 - xl_3_5 >= 0
d_101 - xl_3_13 >= 0
d_101 - yl_3_5 >= 0
xl_3_2 + xl_3_10 + dv_34 -  2 d_102 >= 0
d_102 - xl_3_2 >= 0
d_102 - xl_3_10 >= 0
d_102 - dv_34 >= 0
dv_34 + xl_3_14 + yl_3_2 -  2 d_103 >= 0
d_103 - dv_34 >= 0
d_103 - xl_3_14 >= 0
d_103 - yl_3_2 >= 0
xl_3_6 + xl_3_14 + yl_3_6 -  2 d_104 >= 0
d_104 - xl_3_6 >= 0
d_104 - xl_3_14 >= 0
d_104 - yl_3_6 >= 0
xl_3_3 + xl_3_11 + dv_35 -  2 d_105 >= 0
d_105 - xl_3_3 >= 0
d_105 - xl_3_11 >= 0
d_105 - dv_35 >= 0
dv_35 + xl_3_15 + yl_3_3 -  2 d_106 >= 0
d_106 - dv_35 >= 0
d_106 - xl_3_15 >= 0
d_106 - yl_3_3 >= 0
xl_3_7 + xl_3_15 + yl_3_7 -  2 d_107 >= 0
d_107 - xl_3_7 >= 0
d_107 - xl_3_15 >= 0
d_107 - yl_3_7 >= 0
xl_3_15 - xl_4_0 = 0
xl_3_12 - xl_4_1 = 0
xl_3_13 - xl_4_2 = 0
xl_3_14 - xl_4_3 = 0
xl_3_10 - xl_4_4 = 0
xl_3_9 - xl_4_5 = 0
xl_3_8 - xl_4_6 = 0
xl_3_11 - xl_4_7 = 0
yl_3_6 - xl_4_8 = 0
yl_3_5 - xl_4_9 = 0
yl_3_4 - xl_4_10 = 0
yl_3_7 - xl_4_11 = 0
yl_3_1 - xl_4_12 = 0
yl_3_2 - xl_4_13 = 0
yl_3_3 - xl_4_14 = 0
yl_3_0 - xl_4_15 = 0
xl_4_0 + xl_4_8 + dv_36 -  2 d_108 >= 0
d_108 - xl_4_0 >= 0
d_108 - xl_4_8 >= 0
d_108 - dv_36 >= 0
dv_36 + xl_4_12 + yl_4_0 -  2 d_109 >= 0
d_109 - dv_36 >= 0
d_109 - xl_4_12 >= 0
d_109 - yl_4_0 >= 0
xl_4_4 + xl_4_12 + yl_4_4 -  2 d_110 >= 0
d_110 - xl_4_4 >= 0
d_110 - xl_4_12 >= 0
d_110 - yl_4_4 >= 0
xl_4_1 + xl_4_9 + dv_37 -  2 d_111 >= 0
d_111 - xl_4_1 >= 0
d_111 - xl_4_9 >= 0
d_111 - dv_37 >= 0
dv_37 + xl_4_13 + yl_4_1 -  2 d_112 >= 0
d_112 - dv_37 >= 0
d_112 - xl_4_13 >= 0
d_112 - yl_4_1 >= 0
xl_4_5 + xl_4_13 + yl_4_5 -  2 d_113 >= 0
d_113 - xl_4_5 >= 0
d_113 - xl_4_13 >= 0
d_113 - yl_4_5 >= 0
xl_4_2 + xl_4_10 + dv_38 -  2 d_114 >= 0
d_114 - xl_4_2 >= 0
d_114 - xl_4_10 >= 0
d_114 - dv_38 >= 0
dv_38 + xl_4_14 + yl_4_2 -  2 d_115 >= 0
d_115 - dv_38 >= 0
d_115 - xl_4_14 >= 0
d_115 - yl_4_2 >= 0
xl_4_6 + xl_4_14 + yl_4_6 -  2 d_116 >= 0
d_116 - xl_4_6 >= 0
d_116 - xl_4_14 >= 0
d_116 - yl_4_6 >= 0
xl_4_3 + xl_4_11 + dv_39 -  2 d_117 >= 0
d_117 - xl_4_3 >= 0
d_117 - xl_4_11 >= 0
d_117 - dv_39 >= 0
dv_39 + xl_4_15 + yl_4_3 -  2 d_118 >= 0
d_118 - dv_39 >= 0
d_118 - xl_4_15 >= 0
d_118 - yl_4_3 >= 0
xl_4_7 + xl_4_15 + yl_4_7 -  2 d_119 >= 0
d_119 - xl_4_7 >= 0
d_119 - xl_4_15 >= 0
d_119 - yl_4_7 >= 0
xl_4_15 - xl_5_0 = 0
xl_4_12 - xl_5_1 = 0
xl_4_13 - xl_5_2 = 0
xl_4_14 - xl_5_3 = 0
xl_4_10 - xl_5_4 = 0
xl_4_9 - xl_5_5 = 0
xl_4_8 - xl_5_6 = 0
xl_4_11 - xl_5_7 = 0
yl_4_6 - xl_5_8 = 0
yl_4_5 - xl_5_9 = 0
yl_4_4 - xl_5_10 = 0
yl_4_7 - xl_5_11 = 0
yl_4_1 - xl_5_12 = 0
yl_4_2 - xl_5_13 = 0
yl_4_3 - xl_5_14 = 0
yl_4_0 - xl_5_15 = 0
\ Linking constraints:
xu_1_0 - s_0_0 >= 0
xl_0_0 - s_0_0 >= 0
- xu_1_0 - xl_0_0 + s_0_0 >= -1
\ Linking constraints:
xu_1_1 - s_0_1 >= 0
xl_0_1 - s_0_1 >= 0
- xu_1_1 - xl_0_1 + s_0_1 >= -1
\ Linking constraints:
xu_1_2 - s_0_2 >= 0
xl_0_2 - s_0_2 >= 0
- xu_1_2 - xl_0_2 + s_0_2 >= -1
\ Linking constraints:
xu_1_3 - s_0_3 >= 0
xl_0_3 - s_0_3 >= 0
- xu_1_3 - xl_0_3 + s_0_3 >= -1
\ Linking constraints:
xu_1_4 - s_0_4 >= 0
xl_0_4 - s_0_4 >= 0
- xu_1_4 - xl_0_4 + s_0_4 >= -1
\ Linking constraints:
xu_1_5 - s_0_5 >= 0
xl_0_5 - s_0_5 >= 0
- xu_1_5 - xl_0_5 + s_0_5 >= -1
\ Linking constraints:
xu_1_6 - s_0_6 >= 0
xl_0_6 - s_0_6 >= 0
- xu_1_6 - xl_0_6 + s_0_6 >= -1
\ Linking constraints:
xu_1_7 - s_0_7 >= 0
xl_0_7 - s_0_7 >= 0
- xu_1_7 - xl_0_7 + s_0_7 >= -1
\ Linking constraints:
xu_1_8 - s_0_8 >= 0
xl_0_8 - s_0_8 >= 0
- xu_1_8 - xl_0_8 + s_0_8 >= -1
\ Linking constraints:
xu_1_9 - s_0_9 >= 0
xl_0_9 - s_0_9 >= 0
- xu_1_9 - xl_0_9 + s_0_9 >= -1
\ Linking constraints:
xu_1_10 - s_0_10 >= 0
xl_0_10 - s_0_10 >= 0
- xu_1_10 - xl_0_10 + s_0_10 >= -1
\ Linking constraints:
xu_1_11 - s_0_11 >= 0
xl_0_11 - s_0_11 >= 0
- xu_1_11 - xl_0_11 + s_0_11 >= -1
\ Linking constraints:
xu_1_12 - s_0_12 >= 0
xl_0_12 - s_0_12 >= 0
- xu_1_12 - xl_0_12 + s_0_12 >= -1
\ Linking constraints:
xu_1_13 - s_0_13 >= 0
xl_0_13 - s_0_13 >= 0
- xu_1_13 - xl_0_13 + s_0_13 >= -1
\ Linking constraints:
xu_1_14 - s_0_14 >= 0
xl_0_14 - s_0_14 >= 0
- xu_1_14 - xl_0_14 + s_0_14 >= -1
\ Linking constraints:
xu_1_15 - s_0_15 >= 0
xl_0_15 - s_0_15 >= 0
- xu_1_15 - xl_0_15 + s_0_15 >= -1
\ Linking constraints:
xu_2_0 - s_1_0 >= 0
xl_1_0 - s_1_0 >= 0
- xu_2_0 - xl_1_0 + s_1_0 >= -1
\ Linking constraints:
xu_2_1 - s_1_1 >= 0
xl_1_1 - s_1_1 >= 0
- xu_2_1 - xl_1_1 + s_1_1 >= -1
\ Linking constraints:
xu_2_2 - s_1_2 >= 0
xl_1_2 - s_1_2 >= 0
- xu_2_2 - xl_1_2 + s_1_2 >= -1
\ Linking constraints:
xu_2_3 - s_1_3 >= 0
xl_1_3 - s_1_3 >= 0
- xu_2_3 - xl_1_3 + s_1_3 >= -1
\ Linking constraints:
xu_2_4 - s_1_4 >= 0
xl_1_4 - s_1_4 >= 0
- xu_2_4 - xl_1_4 + s_1_4 >= -1
\ Linking constraints:
xu_2_5 - s_1_5 >= 0
xl_1_5 - s_1_5 >= 0
- xu_2_5 - xl_1_5 + s_1_5 >= -1
\ Linking constraints:
xu_2_6 - s_1_6 >= 0
xl_1_6 - s_1_6 >= 0
- xu_2_6 - xl_1_6 + s_1_6 >= -1
\ Linking constraints:
xu_2_7 - s_1_7 >= 0
xl_1_7 - s_1_7 >= 0
- xu_2_7 - xl_1_7 + s_1_7 >= -1
\ Linking constraints:
xu_2_8 - s_1_8 >= 0
xl_1_8 - s_1_8 >= 0
- xu_2_8 - xl_1_8 + s_1_8 >= -1
\ Linking constraints:
xu_2_9 - s_1_9 >= 0
xl_1_9 - s_1_9 >= 0
- xu_2_9 - xl_1_9 + s_1_9 >= -1
\ Linking constraints:
xu_2_10 - s_1_10 >= 0
xl_1_10 - s_1_10 >= 0
- xu_2_10 - xl_1_10 + s_1_10 >= -1
\ Linking constraints:
xu_2_11 - s_1_11 >= 0
xl_1_11 - s_1_11 >= 0
- xu_2_11 - xl_1_11 + s_1_11 >= -1
\ Linking constraints:
xu_2_12 - s_1_12 >= 0
xl_1_12 - s_1_12 >= 0
- xu_2_12 - xl_1_12 + s_1_12 >= -1
\ Linking constraints:
xu_2_13 - s_1_13 >= 0
xl_1_13 - s_1_13 >= 0
- xu_2_13 - xl_1_13 + s_1_13 >= -1
\ Linking constraints:
xu_2_14 - s_1_14 >= 0
xl_1_14 - s_1_14 >= 0
- xu_2_14 - xl_1_14 + s_1_14 >= -1
\ Linking constraints:
xu_2_15 - s_1_15 >= 0
xl_1_15 - s_1_15 >= 0
- xu_2_15 - xl_1_15 + s_1_15 >= -1
\ Linking constraints:
xu_3_0 - s_2_0 >= 0
xl_2_0 - s_2_0 >= 0
- xu_3_0 - xl_2_0 + s_2_0 >= -1
\ Linking constraints:
xu_3_1 - s_2_1 >= 0
xl_2_1 - s_2_1 >= 0
- xu_3_1 - xl_2_1 + s_2_1 >= -1
\ Linking constraints:
xu_3_2 - s_2_2 >= 0
xl_2_2 - s_2_2 >= 0
- xu_3_2 - xl_2_2 + s_2_2 >= -1
\ Linking constraints:
xu_3_3 - s_2_3 >= 0
xl_2_3 - s_2_3 >= 0
- xu_3_3 - xl_2_3 + s_2_3 >= -1
\ Linking constraints:
xu_3_4 - s_2_4 >= 0
xl_2_4 - s_2_4 >= 0
- xu_3_4 - xl_2_4 + s_2_4 >= -1
\ Linking constraints:
xu_3_5 - s_2_5 >= 0
xl_2_5 - s_2_5 >= 0
- xu_3_5 - xl_2_5 + s_2_5 >= -1
\ Linking constraints:
xu_3_6 - s_2_6 >= 0
xl_2_6 - s_2_6 >= 0
- xu_3_6 - xl_2_6 + s_2_6 >= -1
\ Linking constraints:
xu_3_7 - s_2_7 >= 0
xl_2_7 - s_2_7 >= 0
- xu_3_7 - xl_2_7 + s_2_7 >= -1
\ Linking constraints:
xu_3_8 - s_2_8 >= 0
xl_2_8 - s_2_8 >= 0
- xu_3_8 - xl_2_8 + s_2_8 >= -1
\ Linking constraints:
xu_3_9 - s_2_9 >= 0
xl_2_9 - s_2_9 >= 0
- xu_3_9 - xl_2_9 + s_2_9 >= -1
\ Linking constraints:
xu_3_10 - s_2_10 >= 0
xl_2_10 - s_2_10 >= 0
- xu_3_10 - xl_2_10 + s_2_10 >= -1
\ Linking constraints:
xu_3_11 - s_2_11 >= 0
xl_2_11 - s_2_11 >= 0
- xu_3_11 - xl_2_11 + s_2_11 >= -1
\ Linking constraints:
xu_3_12 - s_2_12 >= 0
xl_2_12 - s_2_12 >= 0
- xu_3_12 - xl_2_12 + s_2_12 >= -1
\ Linking constraints:
xu_3_13 - s_2_13 >= 0
xl_2_13 - s_2_13 >= 0
- xu_3_13 - xl_2_13 + s_2_13 >= -1
\ Linking constraints:
xu_3_14 - s_2_14 >= 0
xl_2_14 - s_2_14 >= 0
- xu_3_14 - xl_2_14 + s_2_14 >= -1
\ Linking constraints:
xu_3_15 - s_2_15 >= 0
xl_2_15 - s_2_15 >= 0
- xu_3_15 - xl_2_15 + s_2_15 >= -1
\ Linking constraints:
xu_4_0 - s_3_0 >= 0
xl_3_0 - s_3_0 >= 0
- xu_4_0 - xl_3_0 + s_3_0 >= -1
\ Linking constraints:
xu_4_1 - s_3_1 >= 0
xl_3_1 - s_3_1 >= 0
- xu_4_1 - xl_3_1 + s_3_1 >= -1
\ Linking constraints:
xu_4_2 - s_3_2 >= 0
xl_3_2 - s_3_2 >= 0
- xu_4_2 - xl_3_2 + s_3_2 >= -1
\ Linking constraints:
xu_4_3 - s_3_3 >= 0
xl_3_3 - s_3_3 >= 0
- xu_4_3 - xl_3_3 + s_3_3 >= -1
\ Linking constraints:
xu_4_4 - s_3_4 >= 0
xl_3_4 - s_3_4 >= 0
- xu_4_4 - xl_3_4 + s_3_4 >= -1
\ Linking constraints:
xu_4_5 - s_3_5 >= 0
xl_3_5 - s_3_5 >= 0
- xu_4_5 - xl_3_5 + s_3_5 >= -1
\ Linking constraints:
xu_4_6 - s_3_6 >= 0
xl_3_6 - s_3_6 >= 0
- xu_4_6 - xl_3_6 + s_3_6 >= -1
\ Linking constraints:
xu_4_7 - s_3_7 >= 0
xl_3_7 - s_3_7 >= 0
- xu_4_7 - xl_3_7 + s_3_7 >= -1
\ Linking constraints:
xu_4_8 - s_3_8 >= 0
xl_3_8 - s_3_8 >= 0
- xu_4_8 - xl_3_8 + s_3_8 >= -1
\ Linking constraints:
xu_4_9 - s_3_9 >= 0
xl_3_9 - s_3_9 >= 0
- xu_4_9 - xl_3_9 + s_3_9 >= -1
\ Linking constraints:
xu_4_10 - s_3_10 >= 0
xl_3_10 - s_3_10 >= 0
- xu_4_10 - xl_3_10 + s_3_10 >= -1
\ Linking constraints:
xu_4_11 - s_3_11 >= 0
xl_3_11 - s_3_11 >= 0
- xu_4_11 - xl_3_11 + s_3_11 >= -1
\ Linking constraints:
xu_4_12 - s_3_12 >= 0
xl_3_12 - s_3_12 >= 0
- xu_4_12 - xl_3_12 + s_3_12 >= -1
\ Linking constraints:
xu_4_13 - s_3_13 >= 0
xl_3_13 - s_3_13 >= 0
- xu_4_13 - xl_3_13 + s_3_13 >= -1
\ Linking constraints:
xu_4_14 - s_3_14 >= 0
xl_3_14 - s_3_14 >= 0
- xu_4_14 - xl_3_14 + s_3_14 >= -1
\ Linking constraints:
xu_4_15 - s_3_15 >= 0
xl_3_15 - s_3_15 >= 0
- xu_4_15 - xl_3_15 + s_3_15 >= -1
\ Linking constraints:
xu_5_0 - s_4_0 >= 0
xl_4_0 - s_4_0 >= 0
- xu_5_0 - xl_4_0 + s_4_0 >= -1
\ Linking constraints:
xu_5_1 - s_4_1 >= 0
xl_4_1 - s_4_1 >= 0
- xu_5_1 - xl_4_1 + s_4_1 >= -1
\ Linking constraints:
xu_5_2 - s_4_2 >= 0
xl_4_2 - s_4_2 >= 0
- xu_5_2 - xl_4_2 + s_4_2 >= -1
\ Linking constraints:
xu_5_3 - s_4_3 >= 0
xl_4_3 - s_4_3 >= 0
- xu_5_3 - xl_4_3 + s_4_3 >= -1
\ Linking constraints:
xu_5_4 - s_4_4 >= 0
xl_4_4 - s_4_4 >= 0
- xu_5_4 - xl_4_4 + s_4_4 >= -1
\ Linking constraints:
xu_5_5 - s_4_5 >= 0
xl_4_5 - s_4_5 >= 0
- xu_5_5 - xl_4_5 + s_4_5 >= -1
\ Linking constraints:
xu_5_6 - s_4_6 >= 0
xl_4_6 - s_4_6 >= 0
- xu_5_6 - xl_4_6 + s_4_6 >= -1
\ Linking constraints:
xu_5_7 - s_4_7 >= 0
xl_4_7 - s_4_7 >= 0
- xu_5_7 - xl_4_7 + s_4_7 >= -1
\ Linking constraints:
xu_5_8 - s_4_8 >= 0
xl_4_8 - s_4_8 >= 0
- xu_5_8 - xl_4_8 + s_4_8 >= -1
\ Linking constraints:
xu_5_9 - s_4_9 >= 0
xl_4_9 - s_4_9 >= 0
- xu_5_9 - xl_4_9 + s_4_9 >= -1
\ Linking constraints:
xu_5_10 - s_4_10 >= 0
xl_4_10 - s_4_10 >= 0
- xu_5_10 - xl_4_10 + s_4_10 >= -1
\ Linking constraints:
xu_5_11 - s_4_11 >= 0
xl_4_11 - s_4_11 >= 0
- xu_5_11 - xl_4_11 + s_4_11 >= -1
\ Linking constraints:
xu_5_12 - s_4_12 >= 0
xl_4_12 - s_4_12 >= 0
- xu_5_12 - xl_4_12 + s_4_12 >= -1
\ Linking constraints:
xu_5_13 - s_4_13 >= 0
xl_4_13 - s_4_13 >= 0
- xu_5_13 - xl_4_13 + s_4_13 >= -1
\ Linking constraints:
xu_5_14 - s_4_14 >= 0
xl_4_14 - s_4_14 >= 0
- xu_5_14 - xl_4_14 + s_4_14 >= -1
\ Linking constraints:
xu_5_15 - s_4_15 >= 0
xl_4_15 - s_4_15 >= 0
- xu_5_15 - xl_4_15 + s_4_15 >= -1
Binary
xu_0_0
xu_0_1
xu_0_2
xu_0_3
xu_0_4
xu_0_5
xu_0_6
xu_0_7
xu_0_8
xu_0_9
xu_0_10
xu_0_11
xu_0_12
xu_0_13
xu_0_14
xu_0_15
xu_1_0
xu_1_1
xu_1_2
xu_1_3
xu_1_4
xu_1_5
xu_1_6
xu_1_7
xu_1_8
xu_1_9
xu_1_10
xu_1_11
xu_1_12
xu_1_13
xu_1_14
xu_1_15
xu_2_0
xu_2_1
xu_2_2
xu_2_3
xu_2_4
xu_2_5
xu_2_6
xu_2_7
xu_2_8
xu_2_9
xu_2_10
xu_2_11
xu_2_12
xu_2_13
xu_2_14
xu_2_15
xu_3_0
xu_3_1
xu_3_2
xu_3_3
xu_3_4
xu_3_5
xu_3_6
xu_3_7
xu_3_8
xu_3_9
xu_3_10
xu_3_11
xu_3_12
xu_3_13
xu_3_14
xu_3_15
xu_4_0
xu_4_1
xu_4_2
xu_4_3
xu_4_4
xu_4_5
xu_4_6
xu_4_7
xu_4_8
xu_4_9
xu_4_10
xu_4_11
xu_4_12
xu_4_13
xu_4_14
xu_4_15
xu_5_0
xu_5_1
xu_5_2
xu_5_3
xu_5_4
xu_5_5
xu_5_6
xu_5_7
xu_5_8
xu_5_9
xu_5_10
xu_5_11
xu_5_12
xu_5_13
xu_5_14
xu_5_15
xl_0_0
xl_0_1
xl_0_2
xl_0_3
xl_0_4
xl_0_5
xl_0_6
xl_0_7
xl_0_8
xl_0_9
xl_0_10
xl_0_11
xl_0_12
xl_0_13
xl_0_14
xl_0_15
xl_1_0
xl_1_1
xl_1_2
xl_1_3
xl_1_4
xl_1_5
xl_1_6
xl_1_7
xl_1_8
xl_1_9
xl_1_10
xl_1_11
xl_1_12
xl_1_13
xl_1_14
xl_1_15
xl_2_0
xl_2_1
xl_2_2
xl_2_3
xl_2_4
xl_2_5
xl_2_6
xl_2_7
xl_2_8
xl_2_9
xl_2_10
xl_2_11
xl_2_12
xl_2_13
xl_2_14
xl_2_15
xl_3_0
xl_3_1
xl_3_2
xl_3_3
xl_3_4
xl_3_5
xl_3_6
xl_3_7
xl_3_8
xl_3_9
xl_3_10
xl_3_11
xl_3_12
xl_3_13
xl_3_14
xl_3_15
xl_4_0
xl_4_1
xl_4_2
xl_4_3
xl_4_4
xl_4_5
xl_4_6
xl_4_7
xl_4_8
xl_4_9
xl_4_10
xl_4_11
xl_4_12
xl_4_13
xl_4_14
xl_4_15
xl_5_0
xl_5_1
xl_5_2
xl_5_3
xl_5_4
xl_5_5
xl_5_6
xl_5_7
xl_5_8
xl_5_9
xl_5_10
xl_5_11
xl_5_12
xl_5_13
xl_5_14
xl_5_15
yu_0_0
yu_0_1
yu_0_2
yu_0_3
yu_0_4
yu_0_5
yu_0_6
yu_0_7
yu_1_0
yu_1_1
yu_1_2
yu_1_3
yu_1_4
yu_1_5
yu_1_6
yu_1_7
yu_2_0
yu_2_1
yu_2_2
yu_2_3
yu_2_4
yu_2_5
yu_2_6
yu_2_7
yu_3_0
yu_3_1
yu_3_2
yu_3_3
yu_3_4
yu_3_5
yu_3_6
yu_3_7
yu_4_0
yu_4_1
yu_4_2
yu_4_3
yu_4_4
yu_4_5
yu_4_6
yu_4_7
yl_0_0
yl_0_1
yl_0_2
yl_0_3
yl_0_4
yl_0_5
yl_0_6
yl_0_7
yl_1_0
yl_1_1
yl_1_2
yl_1_3
yl_1_4
yl_1_5
yl_1_6
yl_1_7
yl_2_0
yl_2_1
yl_2_2
yl_2_3
yl_2_4
yl_2_5
yl_2_6
yl_2_7
yl_3_0
yl_3_1
yl_3_2
yl_3_3
yl_3_4
yl_3_5
yl_3_6
yl_3_7
yl_4_0
yl_4_1
yl_4_2
yl_4_3
yl_4_4
yl_4_5
yl_4_6
yl_4_7
s_0_0
s_0_1
s_0_2
s_0_3
s_0_4
s_0_5
s_0_6
s_0_7
s_0_8
s_0_9
s_0_10
s_0_11
s_0_12
s_0_13
s_0_14
s_0_15
s_1_0
s_1_1
s_1_2
s_1_3
s_1_4
s_1_5
s_1_6
s_1_7
s_1_8
s_1_9
s_1_10
s_1_11
s_1_12
s_1_13
s_1_14
s_1_15
s_2_0
s_2_1
s_2_2
s_2_3
s_2_4
s_2_5
s_2_6
s_2_7
s_2_8
s_2_9
s_2_10
s_2_11
s_2_12
s_2_13
s_2_14
s_2_15
s_3_0
s_3_1
s_3_2
s_3_3
s_3_4
s_3_5
s_3_6
s_3_7
s_3_8
s_3_9
s_3_10
s_3_11
s_3_12
s_3_13
s_3_14
s_3_15
s_4_0
s_4_1
s_4_2
s_4_3
s_4_4
s_4_5
s_4_6
s_4_7
s_4_8
s_4_9
s_4_10
s_4_11
s_4_12
s_4_13
s_4_14
s_4_15
d_0
d_1
d_2
d_3
d_4
d_5
d_6
d_7
d_8
d_9
d_10
d_11
d_12
d_13
d_14
d_15
d_16
d_17
d_18
d_19
d_20
d_21
d_22
d_23
d_24
d_25
d_26
d_27
d_28
d_29
d_30
d_31
d_32
d_33
d_34
d_35
d_36
d_37
d_38
d_39
d_40
d_41
d_42
d_43
d_44
d_45
d_46
d_47
d_48
d_49
d_50
d_51
d_52
d_53
d_54
d_55
d_56
d_57
d_58
d_59
d_60
d_61
d_62
d_63
d_64
d_65
d_66
d_67
d_68
d_69
d_70
d_71
d_72
d_73
d_74
d_75
d_76
d_77
d_78
d_79
d_80
d_81
d_82
d_83
d_84
d_85
d_86
d_87
d_88
d_89
d_90
d_91
d_92
d_93
d_94
d_95
d_96
d_97
d_98
d_99
d_100
d_101
d_102
d_103
d_104
d_105
d_106
d_107
d_108
d_109
d_110
d_111
d_112
d_113
d_114
d_115
d_116
d_117
d_118
d_119
dv_0
dv_1
dv_2
dv_3
dv_4
dv_5
dv_6
dv_7
dv_8
dv_9
dv_10
dv_11
dv_12
dv_13
dv_14
dv_15
dv_16
dv_17
dv_18
dv_19
dv_20
dv_21
dv_22
dv_23
dv_24
dv_25
dv_26
dv_27
dv_28
dv_29
dv_30
dv_31
dv_32
dv_33
dv_34
dv_35
dv_36
dv_37
dv_38
dv_39
END